Gurobi 12.0.3:   lim:time = 2000
Set parameter LogToConsole to value 1
  tech:outlev = 1
Set parameter InfUnbdInfo to value 1
Gurobi Optimizer version 12.0.3 build v12.0.3rc0 (win64 - Windows 11+.0 (26200.2))

CPU model: 12th Gen Intel(R) Core(TM) i7-12700, instruction set [SSE2|AVX|AVX2]
Thread count: 12 physical cores, 20 logical processors, using up to 20 threads

Non-default parameters:
TimeLimit  2000
InfUnbdInfo  1

Optimize a model with 32790 rows, 10312 columns and 206008 nonzeros
Model fingerprint: 0xb9c35554
Model has 5850 quadratic constraints
Model has 676 general nonlinear constraints (1456 nonlinear terms)
Variable types: 4634 continuous, 5678 integer (0 binary)
Coefficient statistics:
  Matrix range     [1e+00, 1e+06]
  QMatrix range    [1e+00, 1e+00]
  QLMatrix range   [1e+00, 1e+01]
  Objective range  [3e+01, 5e+02]
  Bounds range     [1e+00, 1e+06]
  RHS range        [1e+00, 1e+06]
Presolve model has 676 nlconstr
Added 884 variables to disaggregate expressions.
Presolve removed 6064 rows and 2510 columns
Presolve time: 1.91s
Presolved: 42248 rows, 13991 columns, 220145 nonzeros
Presolved model has 1300 SOS constraint(s)
Presolved model has 3250 bilinear constraint(s)

Solving non-convex MIQCP

Variable types: 9275 continuous, 4716 integer (4552 binary)

Root relaxation: objective 9.400000e+01, 3562 iterations, 0.14 seconds (0.21 work units)
Total elapsed time = 5.01s (DegenMoves)

    Nodes    |    Current Node    |     Objective Bounds      |     Work
 Expl Unexpl |  Obj  Depth IntInf | Incumbent    BestBd   Gap | It/Node Time

     0     0   94.00000    0  125          -   94.00000      -     -    6s
     0     0   94.00000    0  532          -   94.00000      -     -   11s
     0     0   94.00000    0  525          -   94.00000      -     -   11s
     0     0   94.00000    0  127          -   94.00000      -     -   16s
     0     0   94.00000    0  127          -   94.00000      -     -   16s
     0     0   94.00000    0  127          -   94.00000      -     -   16s
     0     0   94.00000    0  129          -   94.00000      -     -   18s
     0     0   94.00000    0  141          -   94.00000      -     -   21s
     0     0   94.00000    0  536          -   94.00000      -     -   23s
     0     0   94.00000    0   86          -   94.00000      -     -   27s
     0     0   94.00000    0  350          -   94.00000      -     -   29s
     0     0   94.00000    0   86          -   94.00000      -     -   31s
     0     0   94.00000    0  341          -   94.00000      -     -   33s
     0     0   94.00000    0   82          -   94.00000      -     -   37s
     0     0   94.00000    0   82          -   94.00000      -     -   38s
     0     2   94.00000    0   82          -   94.00000      -     -   42s
     3     8   94.00000    2  445          -   94.00000      -  1220   46s
     7    16   94.00000    3  325          -   94.00000      -   907   53s
    15    28  156.00000    4  441          -   94.00000      -   839   60s
    27    48  156.00000    5  505          -   94.00000      -  1075   68s
    47    70  250.00000    6  406          -   94.00000      -   792   80s
    69    89  156.00000    7  365          -   94.00000      -   628   87s
    88   107  156.00000    8  352          -   94.00000      -   549   94s
   110   130  156.00000    8  329          -   94.00000      -   549  102s
   133   152  156.00000   10  314          -   94.00000      -   493  110s
   155   170  156.00000   11  314          -   94.00000      -   477  119s
   173   202  156.00000   12  366          -   94.00000      -   450  124s
   210   238  156.00000   14  350          -   94.00000      -   436  139s
   246   293  156.00000   15  305          -   94.00000      -   402  154s
   310   386  156.00000   18  381          -   94.00000      -   351  180s
   416   508 infeasible   20               -   94.00000      -   310  211s
   564   623  156.00000   24  393          -   94.00000      -   285  247s
   714   821  156.00000   25  319          -   94.00000      -   263  316s
H  829   821                     532.0000000   94.00000  82.3%   240  316s
   965  1147  156.00000   33  350  532.00000   94.00000  82.3%   230  394s
  1469  1530  156.00000   42  369  532.00000   94.00000  82.3%   201  474s
  2040  1927  156.00000   57  402  532.00000   94.00000  82.3%   175  550s
  2484  2369  156.00000   65  360  532.00000   94.00000  82.3%   165  644s
* 2713  2192             333     438.0000000   94.00000  78.5%   159  644s
  3173  2832 infeasible   83       438.00000   94.00000  78.5%   148  781s
  3985  3367  312.00000  112  253  438.00000   94.00000  78.5%   133  902s
* 4379  3087             432     344.0000000   94.00000  72.7%   126  902s
  4588  3467  312.00000  142  247  344.00000   94.00000  72.7%   126 1014s
  5197  3936 infeasible  168       344.00000   94.00000  72.7%   121 1079s
  5816  4495 infeasible  201       344.00000   94.00000  72.7%   118 1200s
  6520  5078  312.00000  225  222  344.00000   94.00000  72.7%   114 1288s
  7223  5605  312.00000  253  210  344.00000   94.00000  72.7%   107 1348s
  7949  5606   94.00000  171 1609  344.00000   94.00000  72.7%   103 1359s
  7951  5607  250.00000  286   57  344.00000   94.00000  72.7%   103 1364s
  7952  5608  312.00000  281  111  344.00000   94.00000  72.7%   103 1365s
  7954  5609   94.00044  230   56  344.00000   94.00000  72.7%   102 1371s
  7956  5611  250.00000   17   54  344.00000   94.00000  72.7%   102 1375s
  7958  5612  188.00000  243   54  344.00000   94.00000  72.7%   102 1380s
  7962  5615  156.00000   21   54  344.00000   94.00000  72.7%   102 1386s
  7965  5617  188.00000  299  410  344.00000   94.00000  72.7%   102 1390s
  7968  5619  250.00000   50   54  344.00000   94.00000  72.7%   102 1395s
  7971  5621  250.00000  181   58  344.00000   94.00000  72.7%   102 1403s
  7972  5621  250.00000  278   58  344.00000   94.00000  72.7%   102 1418s
  7973  5625   94.00000   13  652  344.00000   94.00000  72.7%   112 1427s
  7979  5635  156.00000   15  112  344.00000   94.00000  72.7%   113 1430s
  7987  5644  156.00000   16  632  344.00000   94.00000  72.7%   113 1438s
  7999  5654  250.00000   17  124  344.00000   94.00000  72.7%   114 1452s
  8019  5669 infeasible   18       344.00000   94.00000  72.7%   114 1459s
  8043  5676  250.00000   21  381  344.00000   94.00000  72.7%   115 1465s
  8058  5690  250.00000   22  383  344.00000   94.00000  72.7%   115 1472s
  8078  5702  250.00000   22  374  344.00000   94.00000  72.7%   115 1480s
  8118  5725  250.00000   24  381  344.00000   94.00000  72.7%   114 1488s
  8137  5733  250.00000   24  330  344.00000   94.00000  72.7%   114 1494s
  8156  5745  250.00000   25  329  344.00000   94.00000  72.7%   114 1497s
  8197  5767  250.00000   26  298  344.00000   94.00000  72.7%   114 1500s
  8216  5777  250.00000   26  311  344.00000   94.00000  72.7%   114 1509s
  8236  5785  250.00000   27  307  344.00000   94.00000  72.7%   114 1513s
  8253  5796  250.00000   27  307  344.00000   94.00000  72.7%   114 1515s
  8291  5812  250.00000   28  293  344.00000   94.00000  72.7%   113 1522s
  8310  5822  250.00000   29  293  344.00000   94.00000  72.7%   113 1529s
  8331  5833  250.00000   29  287  344.00000   94.00000  72.7%   114 1534s
  8351  5848  250.00000   30  270  344.00000   94.00000  72.7%   113 1541s
  8379  5860  250.00000   33  259  344.00000   94.00000  72.7%   113 1549s
  8404  5871  250.00000   35  257  344.00000   94.00000  72.7%   113 1553s
  8432  5885  250.00000   37  246  344.00000   94.00000  72.7%   113 1556s
  8492  5918  250.00000   41  247  344.00000   94.00000  72.7%   113 1569s
  8525  5937  250.00000   44  245  344.00000   94.00000  72.7%   112 1574s
  8559  5949  250.00000   45  250  344.00000   94.00000  72.7%   112 1582s
  8592  5970  250.00000   47  257  344.00000   94.00000  72.7%   112 1589s
  8629  5988  250.00000   50  256  344.00000   94.00000  72.7%   112 1600s
  8662  6008  250.00000   52  317  344.00000   94.00000  72.7%   111 1607s
  8701  6024  250.00000   55  250  344.00000   94.00000  72.7%   111 1611s
  8739  6047  250.00000   58  240  344.00000   94.00000  72.7%   111 1621s
  8778  6065  250.00000   61  225  344.00000   94.00000  72.7%   111 1628s
  8816  6088  250.00000   64  212  344.00000   94.00000  72.7%   111 1636s
  8865  6109  250.00000   69  239  344.00000   94.00000  72.7%   110 1645s
  8913  6127  250.00000   75  233  344.00000   94.00000  72.7%   110 1654s
  8965  6143  250.00000   81  194  344.00000   94.00000  72.7%   110 1664s
  9008  6162 infeasible   85       344.00000   94.00000  72.7%   109 1677s
  9059  6190  250.00000   91  191  344.00000   94.00000  72.7%   109 1683s
  9114  6215  250.00000   95  195  344.00000   94.00000  72.7%   109 1695s
  9173  6241  250.00000   99  192  344.00000   94.00000  72.7%   108 1707s
  9237  6275 infeasible  105       344.00000   94.00000  72.7%   108 1719s
  9307  6300  250.00000  111  214  344.00000   94.00000  72.7%   108 1737s
  9370  6343 infeasible  117       344.00000   94.00000  72.7%   107 1752s
  9452  6375  250.00000  126  200  344.00000   94.00000  72.7%   107 1771s
  9533  6412  250.00000  135  176  344.00000   94.00000  72.7%   106 1786s
  9618  6452  250.00000  144  188  344.00000   94.00000  72.7%   106 1795s
  9711  6475 infeasible  155       344.00000   94.00000  72.7%   106 1813s
  9800  6502 infeasible  168       344.00000   94.00000  72.7%   106 1832s
  9881  6532  250.00000  177  156  344.00000   94.00000  72.7%   105 1844s
  9973  6550  250.00000  186  173  344.00000   94.00000  72.7%   105 1860s
 10034  6609  250.00000  193  186  344.00000   94.00000  72.7%   105 1871s
 10121  6652 infeasible  199       344.00000   94.00000  72.7%   105 1888s
 10210  6669  250.00000  207  202  344.00000   94.00000  72.7%   105 1903s
 10269  6703 infeasible  207       344.00000   94.00000  72.7%   105 1916s
 10342  6761  250.00000  208  235  344.00000   94.00000  72.7%   105 1933s
 10442  6827  250.00000  217  190  344.00000   94.00000  72.7%   105 1954s
 10561  6887  250.00000  235  197  344.00000   94.00000  72.7%   104 1966s
 10688  6930   94.00000   31  574  344.00000   94.00000  72.7%   104 1981s
 10800  6970   94.00000   36  488  344.00000   94.00000  72.7%   104 1999s
 10913  6946   94.00000   42  450  344.00000   94.00000  72.7%   105 2000s

Cutting planes:
  Gomory: 4
  Cover: 40
  Implied bound: 77
  Projected implied bound: 1
  Clique: 26
  MIR: 9
  StrongCG: 16
  Flow cover: 107
  GUB cover: 9
  Inf proof: 3
  Zero half: 1
  RLT: 123
  Relax-and-lift: 30
  BQP: 3
  PSD: 16

Explored 10929 nodes (1196304 simplex iterations) in 2000.15 seconds (422.71 work units)
Thread count was 20 (of 20 available processors)

Solution count 3: 344 438 532 

Time limit reached
Best objective 3.440000000000e+02, best bound 9.400000000000e+01, gap 72.6744%

AMPL MP initial flat model has 8960 variables (78 integer, 5580 binary);
Objectives: 1 linear; 
Constraints:  32114 linear; 7202 quadratic;

AMPL MP final model has 10312 variables (118 integer, 5580 binary);
Objectives: 1 linear; 
Constraints:  32790 linear; 7202 quadratic;


Gurobi 12.0.3: time limit, feasible solution; objective 344
1.1963e+06 simplex iterations
10929 branching nodes
absmipgap=250, relmipgap=0.726744
lp, wp, hp: begin
1: 5.500000 2.000000 8.500000
2: 5.500000 2.000000 8.500000
3: 5.500000 2.000000 8.500000
4: 5.500000 2.000000 8.500000
5: 5.500000 2.000000 8.500000
6: 5.500000 2.000000 8.500000
7: 12.000000 7.000000 20.000000
8: 12.000000 7.000000 20.000000
9: 12.000000 7.000000 20.000000
10: 12.000000 7.000000 20.000000
11: 12.000000 7.000000 20.000000
12: 12.000000 7.000000 20.000000
13: 10.000000 8.000000 15.000000
14: 10.000000 8.000000 15.000000
15: 12.000000 7.000000 20.000000
16: 12.000000 7.000000 20.000000
17: 12.000000 7.000000 20.000000
18: 12.000000 7.000000 20.000000
19: 12.000000 7.000000 20.000000
20: 12.000000 7.000000 20.000000
21: 12.000000 7.000000 20.000000
22: 12.000000 7.000000 20.000000
23: 12.000000 7.000000 20.000000
24: 12.000000 7.000000 20.000000
25: 12.000000 7.000000 20.000000
26: 12.000000 7.000000 20.000000
lp, wp, hp: end
LB, WB, HB: begin
1: 28.000000 15.000000 15.000000
2: 28.000000 15.000000 15.000000
3: 28.000000 15.000000 15.000000
4: 28.000000 15.000000 15.000000
5: 28.000000 15.000000 15.000000
6: 28.000000 15.000000 15.000000
7: 28.000000 15.000000 15.000000
8: 28.000000 15.000000 15.000000
9: 28.000000 15.000000 15.000000
10: 28.000000 15.000000 15.000000
11: 42.000000 32.000000 26.000000
12: 42.000000 32.000000 26.000000
13: 42.000000 32.000000 26.000000
14: 42.000000 32.000000 26.000000
15: 42.000000 32.000000 26.000000
16: 42.000000 32.000000 26.000000
17: 42.000000 32.000000 26.000000
18: 42.000000 32.000000 26.000000
19: 42.000000 32.000000 26.000000
20: 42.000000 32.000000 26.000000
21: 45.700000 45.700000 40.600000
22: 45.700000 45.700000 40.600000
23: 45.700000 45.700000 40.600000
24: 45.700000 45.700000 40.600000
25: 45.700000 45.700000 40.600000
26: 45.700000 45.700000 40.600000
27: 45.700000 45.700000 40.600000
28: 45.700000 45.700000 40.600000
29: 45.700000 45.700000 40.600000
30: 45.700000 45.700000 40.600000
31: 61.000000 46.000000 61.000000
32: 61.000000 46.000000 61.000000
33: 61.000000 46.000000 61.000000
34: 61.000000 46.000000 61.000000
35: 61.000000 46.000000 61.000000
36: 61.000000 46.000000 61.000000
37: 61.000000 46.000000 61.000000
38: 61.000000 46.000000 61.000000
39: 61.000000 46.000000 61.000000
40: 61.000000 46.000000 61.000000
LB, WB, HB: end
l_px, l_py, w_px, w_py: begin
1: 0 1 1 0
2: 0 1 1 0
3: 0 1 1 0
4: 0 1 1 0
5: 0 1 1 0
6: 0 1 1 0
7: 0 1 1 0
8: 1 0 0 1
9: 1 0 0 1
10: 0 1 1 0
11: 1 0 0 1
12: 0 1 1 0
13: 0 1 1 0
14: 0 1 1 0
15: 0 1 1 0
16: 0 1 1 0
17: 1 0 0 1
18: 1 0 0 1
19: 0 1 1 0
20: 1 0 0 1
21: 0 1 1 0
22: 0 1 1 0
23: 1 0 0 1
24: 0 1 1 0
25: 0 1 1 0
26: 1 0 0 1
l_px, l_py, w_px, w_py: end
xp, yp, zp, on_floor: begin
1: 15.000000 13.000000 0.000000 1
2: 15.000000 14.000000 0.000000 1
3: 15.000000 13.000000 20.000000 0
4: 13.000000 14.000000 0.000000 1
5: 17.000000 14.000000 20.000000 0
6: 17.000000 14.000000 0.000000 1
7: 8.000000 20.000000 0.000000 1
8: 15.000000 13.000000 0.000000 1
9: 17.000000 20.000000 20.000000 0
10: 8.000000 20.000000 0.000000 1
11: 3.000000 13.000000 0.000000 1
12: 17.000000 1.000000 0.000000 1
13: 7.000000 3.000000 0.000000 1
14: 9.000000 20.000000 0.000000 1
15: 10.000000 1.000000 20.000000 0
16: 17.000000 2.000000 0.000000 1
17: 3.000000 13.000000 0.000000 1
18: 17.000000 20.000000 0.000000 1
19: 10.000000 1.000000 0.000000 1
20: 17.000000 6.000000 0.000000 1
21: 10.000000 1.000000 0.000000 1
22: 8.000000 20.000000 20.000000 0
23: 17.000000 6.000000 20.000000 0
24: 15.000000 20.000000 0.000000 1
25: 17.000000 20.000000 0.000000 1
26: 3.000000 13.000000 20.000000 0
xp, yp, zp, on_floor: end
product ->carton: begin
1 -> 15
2 -> 15
3 -> 22
4 -> 15
5 -> 22
6 -> 15
7 -> 11
8 -> 11
9 -> 22
10 -> 22
11 -> 11
12 -> 15
13 -> 22
14 -> 15
15 -> 22
16 -> 22
17 -> 22
18 -> 22
19 -> 11
20 -> 11
21 -> 15
22 -> 22
23 -> 22
24 -> 11
25 -> 15
26 -> 22
product ->carton: end
